NAME : random_18
COMMENT : 30 random nodes
TYPE : TSP
DIMENSION : 30
EDGE_WEIGHT_TYPE : EUC_2D
NODE_COORD_SECTION
1 31 189
2 376 981
3 294 764
4 887 447
5 208 601
6 347 970
7 174 854
8 188 268
9 921 906
10 256 680
11 125 760
12 193 91
13 199 535
14 328 961
15 851 428
16 860 213
17 400 250
18 232 612
19 6 529
20 948 891
21 565 63
22 613 395
23 790 686
24 526 574
25 876 48
26 37 237
27 607 942
28 69 632
29 858 996
30 375 888
EOF